50, 643
26, 26
6, 6
4, 4
32, 32
18, 18
10, 10
24, 24
42, 42
28, 28
30, 30
4, 4
8, 8
26, 26
22, 22
20, 20
18, 18
8, 8
48, 48
44, 44
44, 44
16, 16
42, 42
50, 50
20, 20
4, 4
16, 16
14, 14
22, 22
36, 36
4, 4
28, 28
30, 30
16, 16
26, 26
36, 36
32, 32
50, 50
6, 6
26, 26
4, 4
46, 46
36, 36
32, 32
4, 4
36, 36
26, 26
40, 40
36, 36
50, 50
38, 38
